(set-logic HORN)


(declare-fun |h13| ( Int Int Int Int Int Int Int Int Int Int ) Bool)
(declare-fun |h22| ( Int Int Int Int Int Int Int Int Int Int ) Bool)
(declare-fun |h15| ( Int Int Int Int Int Int Int Int Int Int ) Bool)
(declare-fun |h26| ( Int Int Int Int Int Int Int Int Int Int ) Bool)
(declare-fun |h7| ( Int Int Int Int Int Int Int Int Int Int ) Bool)
(declare-fun |h19| ( Int Int Int Int Int Int Int Int Int Int ) Bool)
(declare-fun |h14| ( Int Int Int Int Int Int Int Int Int Int ) Bool)
(declare-fun |h3| ( Int Int Int Int Int Int Int Int Int Int ) Bool)
(declare-fun |h16| ( Int Int Int Int Int Int Int Int Int Int ) Bool)
(declare-fun |h18| ( Int Int Int Int Int Int Int Int Int Int ) Bool)
(declare-fun |h17| ( Int Int Int Int Int Int Int Int Int Int ) Bool)
(declare-fun |h8| ( Int Int Int Int Int Int Int Int Int Int ) Bool)
(declare-fun |h6| ( Int Int Int Int Int Int Int Int Int Int ) Bool)
(declare-fun |h20| ( Int Int Int Int Int Int Int Int Int Int ) Bool)
(declare-fun |h11| ( Int Int Int Int Int Int Int Int Int Int ) Bool)
(declare-fun |h2| ( Int Int Int Int Int Int Int Int Int Int ) Bool)
(declare-fun |h21| ( Int Int Int Int Int Int Int Int Int Int ) Bool)
(declare-fun |h23| ( Int Int Int Int Int Int Int Int Int Int ) Bool)
(declare-fun |h25| ( Int Int Int Int Int Int Int Int Int Int ) Bool)
(declare-fun |h24| ( Int Int Int Int Int Int Int Int Int Int ) Bool)
(declare-fun |h12| ( Int Int Int Int Int Int Int Int Int Int ) Bool)
(declare-fun |h1| ( Int Int Int Int Int Int Int Int Int Int ) Bool)

(assert
  (forall ( (A Int) (B Int) (C Int) (D Int) (E Int) (v_5 Int) (v_6 Int) (v_7 Int) (v_8 Int) (v_9 Int) ) 
    (=>
      (and
        (and true (= v_5 A) (= v_6 B) (= v_7 C) (= v_8 D) (= v_9 E))
      )
      (h1 A B C D E v_5 v_6 v_7 v_8 v_9)
    )
  )
)
(assert
  (forall ( (A Int) (B Int) (C Int) (D Int) (E Int) (F Int) (G Int) (H Int) (I Int) (J Int) (K Int) ) 
    (=>
      (and
        (h1 A B C D E F G K I J)
        (= G H)
      )
      (h2 A B C D E F G H I J)
    )
  )
)
(assert
  (forall ( (A Int) (B Int) (C Int) (D Int) (E Int) (F Int) (G Int) (H Int) (I Int) (J Int) ) 
    (=>
      (and
        (h2 A B C D E F G H I J)
        true
      )
      (h3 A B C D E F G H I J)
    )
  )
)
(assert
  (forall ( (A Int) (B Int) (C Int) (D Int) (E Int) (F Int) (G Int) (H Int) (I Int) (J Int) ) 
    (=>
      (and
        (h3 A B C D E F G H I J)
        (<= (+ F (* (- 1) G)) (- 1))
      )
      (h6 A B C D E F G H I J)
    )
  )
)
(assert
  (forall ( (A Int) (B Int) (C Int) (D Int) (E Int) (F Int) (G Int) (H Int) (I Int) (J Int) ) 
    (=>
      (and
        (h6 A B C D E F G H I J)
        true
      )
      (h7 A B C D E F G H I J)
    )
  )
)
(assert
  (forall ( (A Int) (B Int) (C Int) (D Int) (E Int) (F Int) (G Int) (H Int) (I Int) (J Int) ) 
    (=>
      (and
        (h8 A B C D E F G H I J)
        true
      )
      (h7 A B C D E F G H I J)
    )
  )
)
(assert
  (forall ( (A Int) (B Int) (C Int) (D Int) (E Int) (F Int) (G Int) (H Int) (I Int) (J Int) ) 
    (=>
      (and
        (h3 A B C D E F G H I J)
        (>= (+ F (* (- 1) G)) 1)
      )
      (h8 A B C D E F G H I J)
    )
  )
)
(assert
  (forall ( (A Int) (B Int) (C Int) (D Int) (E Int) (F Int) (G Int) (H Int) (I Int) (J Int) ) 
    (=>
      (and
        (h7 A B C D E F G H I J)
        true
      )
      (h11 A B C D E F G H I J)
    )
  )
)
(assert
  (forall ( (A Int) (B Int) (C Int) (D Int) (E Int) (F Int) (G Int) (H Int) (I Int) (J Int) ) 
    (=>
      (and
        (h11 A B C D E F G H I J)
        true
      )
      (h12 A B C D E F G H I J)
    )
  )
)
(assert
  (forall ( (A Int) (B Int) (C Int) (D Int) (E Int) (F Int) (G Int) (H Int) (I Int) (J Int) ) 
    (=>
      (and
        (h24 A B C D E F G H I J)
        true
      )
      (h12 A B C D E F G H I J)
    )
  )
)
(assert
  (forall ( (A Int) (B Int) (C Int) (D Int) (E Int) (F Int) (G Int) (H Int) (I Int) (J Int) ) 
    (=>
      (and
        (h23 A B C D E F G H I J)
        true
      )
      (h12 A B C D E F G H I J)
    )
  )
)
(assert
  (forall ( (A Int) (B Int) (C Int) (D Int) (E Int) (F Int) (G Int) (H Int) (I Int) (J Int) ) 
    (=>
      (and
        (h12 A B C D E F G H I J)
        true
      )
      (h13 A B C D E F G H I J)
    )
  )
)
(assert
  (forall ( (A Int) (B Int) (C Int) (D Int) (E Int) (F Int) (G Int) (H Int) (I Int) (J Int) ) 
    (=>
      (and
        (h13 A B C D E F G H I J)
        true
      )
      (h14 A B C D E F G H I J)
    )
  )
)
(assert
  (forall ( (A Int) (B Int) (C Int) (D Int) (E Int) (F Int) (G Int) (H Int) (I Int) (J Int) ) 
    (=>
      (and
        (h14 A B C D E F G H I J)
        true
      )
      (h15 A B C D E F G H I J)
    )
  )
)
(assert
  (forall ( (A Int) (B Int) (C Int) (D Int) (E Int) (F Int) (G Int) (H Int) (I Int) (J Int) ) 
    (=>
      (and
        (h15 A B C D E F G H I J)
        (<= I (- 1))
      )
      (h16 A B C D E F G H I J)
    )
  )
)
(assert
  (forall ( (A Int) (B Int) (C Int) (D Int) (E Int) (F Int) (G Int) (H Int) (I Int) (J Int) ) 
    (=>
      (and
        (h16 A B C D E F G H I J)
        true
      )
      (h17 A B C D E F G H I J)
    )
  )
)
(assert
  (forall ( (A Int) (B Int) (C Int) (D Int) (E Int) (F Int) (G Int) (H Int) (I Int) (J Int) ) 
    (=>
      (and
        (h18 A B C D E F G H I J)
        true
      )
      (h17 A B C D E F G H I J)
    )
  )
)
(assert
  (forall ( (A Int) (B Int) (C Int) (D Int) (E Int) (F Int) (G Int) (H Int) (I Int) (J Int) ) 
    (=>
      (and
        (h15 A B C D E F G H I J)
        (>= I 1)
      )
      (h18 A B C D E F G H I J)
    )
  )
)
(assert
  (forall ( (A Int) (B Int) (C Int) (D Int) (E Int) (F Int) (G Int) (H Int) (I Int) (J Int) ) 
    (=>
      (and
        (h15 A B C D E F G H I J)
        (= I 0)
      )
      (h19 A B C D E F G H I J)
    )
  )
)
(assert
  (forall ( (A Int) (B Int) (C Int) (D Int) (E Int) (F Int) (G Int) (H Int) (I Int) (J Int) ) 
    (=>
      (and
        (h19 A B C D E F G H I J)
        true
      )
      (h20 A B C D E F G H I J)
    )
  )
)
(assert
  (forall ( (A Int) (B Int) (C Int) (D Int) (E Int) (F Int) (G Int) (H Int) (I Int) (J Int) ) 
    (=>
      (and
        (h20 A B C D E F G H I J)
        true
      )
      (h21 A B C D E F G H I J)
    )
  )
)
(assert
  (forall ( (A Int) (B Int) (C Int) (D Int) (E Int) (F Int) (G Int) (H Int) (I Int) (J Int) ) 
    (=>
      (and
        (h17 A B C D E F G H I J)
        (>= F 1)
      )
      (h22 A B C D E F G H I J)
    )
  )
)
(assert
  (forall ( (A Int) (B Int) (C Int) (D Int) (E Int) (F Int) (G Int) (H Int) (I Int) (J Int) (K Int) ) 
    (=>
      (and
        (h22 A B C D E F K H I J)
        (= F (+ (* (- 1) K) G))
      )
      (h23 A B C D E F G H I J)
    )
  )
)
(assert
  (forall ( (A Int) (B Int) (C Int) (D Int) (E Int) (F Int) (G Int) (H Int) (I Int) (J Int) ) 
    (=>
      (and
        (h17 A B C D E F G H I J)
        (<= F 0)
      )
      (h24 A B C D E F G H I J)
    )
  )
)
(assert
  (forall ( (A Int) (B Int) (C Int) (D Int) (E Int) (F Int) (G Int) (H Int) (I Int) (J Int) ) 
    (=>
      (and
        (h21 A B C D E F G H I J)
        true
      )
      (h25 A B C D E F G H I J)
    )
  )
)
(assert
  (forall ( (A Int) (B Int) (C Int) (D Int) (E Int) (F Int) (G Int) (H Int) (I Int) (J Int) ) 
    (=>
      (and
        (h25 A B C D E F G H I J)
        (<= (+ G (* (- 1) H)) (- 1))
      )
      (h26 A B C D E F G H I J)
    )
  )
)
(assert
  (forall ( (A Int) (B Int) (C Int) (D Int) (E Int) (F Int) (G Int) (H Int) (I Int) (J Int) ) 
    (=>
      (and
        (h26 A B C D E F G H I J)
        true
      )
      false
    )
  )
)

(check-sat)
(exit)
